2
1000 5
44
257 1 1
262 1 1
135 1 1
215 1 1
141 1 1
174 1 1
27 1 1
29 1 1
159 1 1
288 1 1
161 1 1
34 1 2
163 1 2
292 1 1
294 1 1
296 1 1
299 1 1
172 1 1
46 1 1
305 1 1
182 1 1
58 1 1
190 1 1
321 1 1
325 1 1
72 1 1
331 1 1
207 1 1
209 1 1
210 1 2
342 1 1
87 1 1
89 1 1
355 1 1
229 1 2
102 1 1
231 1 2
360 1 2
106 1 1
235 1 1
241 1 1
375 1 1
234 1 1
125 1 1
